p cnf 150 60
x -4 8 9 -10 -11 12 -17 -18 19 20 22 23 -27 28 -30 31 34 37 -40 -41 -43 47 48 49 53 -55 56 -57 58 -59 61 67 72 76 77 78 -82 84 -85 -86 88 89 -90 -93 -94 95 -100 102 -104 -106 -107 109 -110 -112 113 -114 -116 117 -118 122 124 125 -127 -128 129 -131 132 135 136 139 140 141 -142 149 0
x -3 4 -5 -6 -7 9 -10 12 -15 -16 -18 19 28 -33 -34 37 -39 -49 51 53 56 57 58 -60 -61 -64 65 66 69 -71 73 -76 -77 -78 -79 -81 82 85 86 -87 91 -96 98 -102 -103 -104 105 -106 107 -108 111 112 113 114 -120 -122 124 131 -132 133 -134 135 -137 -138 -144 145 146 -147 -148 -150 0
x -1 6 -7 9 -10 12 14 15 16 17 -19 -22 24 25 26 -27 28 29 30 -33 34 37 -41 42 -43 44 45 -47 51 -52 53 -55 -57 -61 -62 63 -64 66 68 71 74 79 -80 82 85 86 -87 -89 91 -93 95 96 -97 100 -101 -104 -105 -107 -109 110 111 112 116 117 118 -123 -124 128 133 136 137 139 141 144 -145 -146 147 150 0
x 1 2 -4 -8 9 -12 14 -15 -18 -19 -22 -24 26 -28 -30 -31 -32 34 -35 37 -40 41 42 -43 -44 47 50 51 53 -54 -56 60 -62 63 -64 -65 66 -68 70 -72 75 76 78 80 -86 -87 89 -90 97 98 99 100 104 105 106 107 -108 -111 112 -113 114 -116 117 120 121 122 -125 127 130 -132 -133 135 -137 139 -140 141 142 -143 -144 146 147 0
x 5 -6 7 9 -10 -13 14 15 18 19 21 22 -23 25 28 -31 -33 34 35 36 38 -39 40 -41 -47 48 -49 -50 52 -55 -56 57 -59 -60 -62 63 -65 -66 -67 -68 -69 -70 71 72 80 82 -84 -86 -90 91 93 -94 96 -97 99 101 -102 105 -107 110 -114 -115 116 -117 118 119 -120 -125 126 -127 -128 -129 132 -133 -134 -139 -142 -143 -144 -146 0
x -1 3 6 7 -9 11 -12 -13 -14 15 16 21 22 -24 -27 -29 -31 35 36 -37 40 41 -42 44 -45 -51 52 -53 54 -56 -59 60 61 68 -69 70 -75 -76 77 -78 79 83 -88 -89 90 -92 -93 -95 96 -100 108 -109 112 -113 -114 -116 120 124 125 -126 128 135 136 -140 -141 142 -143 -144 -146 -147 -148 -150 0
x 1 -2 -3 -7 -8 -13 -14 -16 17 18 -21 -22 23 -24 26 -31 32 -36 40 43 -45 -48 -50 51 -52 53 -54 -55 63 64 66 69 -71 73 -75 76 78 -81 -83 -85 -86 -91 -93 -94 95 -96 97 -100 101 -105 108 -111 -112 -114 115 -117 -118 119 -123 124 126 127 129 -130 -131 -132 133 -135 138 -142 -146 147 148 -149 0
x -2 -3 -4 -5 -8 -9 -13 -14 -17 20 22 -24 25 -26 27 30 31 35 36 -37 40 -41 -45 -46 -48 50 51 54 55 57 59 -60 61 -64 65 69 71 -73 -75 77 -79 -81 82 83 84 85 -86 96 -97 98 -101 103 104 -108 110 111 -112 113 116 -117 124 126 127 132 -133 -134 138 -142 -143 145 -147 0
x 2 3 -7 -8 10 -11 13 18 19 -29 -30 -32 -33 34 35 -36 37 -38 -39 -43 -44 -45 -46 -48 -52 56 59 -60 -63 -67 68 70 -71 73 -74 -75 -77 -79 -80 81 -83 -84 87 88 -92 93 -95 98 99 100 -101 -104 -106 -107 108 -110 111 115 -116 117 -119 -120 -121 122 124 -125 -127 -129 130 132 133 135 -136 -137 138 140 -141 142 -143 147 -148 -149 150 0
x -2 -3 4 -5 6 7 10 -12 15 16 17 -21 22 24 25 -26 -27 37 40 -48 -49 51 52 -54 -55 -57 -63 -68 69 -70 71 -73 -75 -77 -78 79 80 82 -84 86 88 -99 100 -101 -104 112 -113 -114 -115 -116 -117 118 119 125 -126 127 128 130 133 135 136 -138 -144 146 -147 148 0
x -4 5 -6 -9 10 -11 12 13 14 -16 17 -30 32 -39 -41 44 -45 -46 -47 51 52 -53 55 -56 -61 -62 -64 -68 70 -72 -73 -78 -79 80 -81 83 -84 86 -87 -89 -91 92 96 97 98 101 -102 103 108 -109 -112 113 -114 -115 117 123 -125 -126 127 -129 -132 -133 -134 140 -141 -142 145 150 0
x -1 -3 4 5 7 8 9 -12 -13 -15 -17 20 -26 -27 -28 -29 -33 35 -36 38 -46 -47 48 49 -50 -51 53 -57 59 60 62 64 -66 -67 -68 69 71 72 73 -75 81 83 84 85 -86 87 -88 90 -92 97 -98 99 102 -103 104 -107 108 -111 112 113 116 -117 -120 -121 -122 123 124 -126 -127 -128 129 130 131 -138 139 -140 141 142 143 145 150 0
x 2 3 4 5 6 -8 -9 10 -11 -14 -17 19 -20 -21 -28 31 32 35 36 38 39 41 42 -43 -45 46 -51 -54 -55 56 -57 -60 -61 -62 64 -69 -70 -78 81 -83 84 -88 -89 -91 -94 95 -96 97 -98 102 -105 -108 -110 -112 113 -115 -118 -119 121 -123 -127 -128 -132 -133 136 -140 142 -144 146 -148 149 150 0
x -1 -3 -6 7 8 -9 13 -14 -15 -18 20 -21 22 -24 -27 -28 -33 -34 35 -37 -40 -41 44 45 -47 -54 -55 58 -59 -60 61 -63 -64 66 68 69 70 -71 -72 -73 75 80 -81 -84 -86 -92 -93 94 -96 -97 -98 100 -101 102 103 104 106 107 108 -109 110 -111 -112 113 115 -117 -118 -121 -122 126 127 -128 129 -132 133 -136 -137 -138 -139 140 -141 -142 146 -147 -148 -149 -150 0
x -1 2 -5 -8 13 -15 -24 -27 -30 32 -33 -34 -35 -37 -38 -39 40 -41 -42 -44 -46 -50 53 -54 -55 58 59 60 61 -63 64 68 -69 -72 75 -76 -78 -79 80 -84 -85 -87 -89 -92 94 95 97 -101 -104 -106 -107 108 -109 110 -111 -113 -115 -118 120 123 -124 -125 -128 -129 -131 -132 -133 -134 136 -137 138 139 -140 141 -143 144 -145 146 147 -148 -149 0
x -2 9 10 12 13 -14 16 -21 23 -24 29 -31 -33 34 35 -36 -37 40 42 -45 49 -50 -51 53 -54 56 -58 -60 61 62 -64 -66 -68 -70 -76 77 -79 -82 -86 -87 -90 92 -93 94 -97 101 105 108 -111 -116 -118 119 -120 122 124 125 127 128 -129 130 132 135 -136 -138 140 -145 -146 -147 -150 0
x -4 5 7 8 10 15 -16 17 -18 -22 24 -25 27 -28 -29 30 31 -32 33 34 41 -43 -44 -45 -47 48 -50 -53 54 57 58 -59 -60 -63 -64 67 -68 -69 70 78 -79 81 -83 87 -89 90 91 -92 93 94 -95 96 100 102 103 -104 -108 -111 -112 113 -117 118 -120 122 -128 -129 130 -133 -134 -135 136 137 -143 -144 145 -147 -148 0
x -4 -6 7 -9 11 13 17 20 21 29 -30 -31 32 33 36 -39 -41 -43 44 -48 -50 -52 -54 -56 58 61 -64 -65 -66 68 71 -72 -74 -75 76 -77 -78 80 -85 86 -88 -91 -93 -95 -98 100 101 102 103 106 -111 113 114 -115 -116 118 120 122 -123 -124 128 133 137 -139 -140 144 146 0
x 2 -3 -6 -8 12 13 -15 16 -19 -20 21 22 -23 24 -25 26 28 -30 31 33 34 -35 -36 -37 39 40 -42 -43 -46 47 48 -49 -50 -52 -54 -60 61 -63 -67 69 -71 72 73 -76 -78 79 -80 82 83 87 90 91 -94 96 100 101 -103 107 108 113 117 119 120 -121 -122 -123 126 129 133 -134 135 -136 137 -138 140 142 -143 -145 -148 0
x -1 -2 3 -4 5 -6 8 9 11 -18 -24 25 26 27 -29 -30 32 33 34 -35 -39 42 44 -45 48 -51 52 55 56 -61 69 71 73 77 78 -79 -80 81 82 -84 87 -88 90 -94 -95 96 100 -105 -106 -109 -110 -112 114 115 116 -117 118 -121 127 129 -130 -131 133 -136 -137 142 143 146 148 -150 0
x -2 -3 7 8 9 -10 11 12 -13 -16 -19 20 -21 -23 26 -28 30 33 34 37 39 -41 -42 43 45 -46 -47 -53 -54 -55 -56 -57 58 -59 -60 -61 65 -68 -70 -71 76 -78 80 -81 82 83 84 -85 -86 88 -89 90 -91 -92 93 -94 97 98 100 -102 -103 -105 106 -109 -110 -111 -112 -114 -115 -117 -119 -121 -122 123 -126 -132 133 -134 136 -139 -141 -142 143 0
x 1 2 -3 -4 -5 -8 11 13 15 -17 -19 -20 -21 -24 -25 -26 -27 -28 29 -32 33 -34 -37 -38 39 -40 -41 -44 -45 -46 47 -53 -54 -55 -56 -60 61 -62 63 -64 -65 71 -72 -73 75 -76 -79 80 81 -83 84 85 -92 -93 -95 99 -100 -102 -105 108 110 -112 -113 115 117 118 122 -124 127 129 -131 134 136 137 -138 -140 141 143 -144 -145 -147 -148 150 0
x 1 -5 -9 10 11 -17 -18 20 21 22 -23 -24 -25 26 -29 -30 -31 32 34 37 -40 -42 -44 -45 -47 48 -51 -52 -56 -58 62 64 65 -67 -68 69 -70 -72 -73 -81 -82 -83 84 85 88 -90 91 94 99 101 -106 107 -109 110 -111 -112 114 115 116 -121 -122 124 125 -126 -129 -134 137 139 141 -143 145 -146 -148 -149 0
x 1 -2 -3 7 -10 -11 -14 -16 -21 -23 24 -26 -27 -29 30 31 32 34 -35 37 38 -39 40 -42 44 50 54 55 -57 58 63 -71 73 -74 -78 -79 -83 -85 88 90 -92 93 96 97 -99 101 -102 -104 -113 -118 119 121 -123 125 126 -128 -129 -130 -132 -141 142 143 -146 -147 -150 0
x 1 -2 -5 9 -10 -11 14 -18 19 21 -22 23 24 25 -27 28 29 35 39 40 43 -45 49 -51 -55 -58 -61 -65 66 -67 -68 69 70 -72 -75 77 78 -79 84 86 87 -90 91 92 94 -95 -99 -102 103 -105 -111 115 -116 -118 -122 123 -124 126 -127 -131 -132 -136 -138 139 141 142 143 144 -147 148 0
x -1 -4 -7 9 -12 13 -16 17 -18 19 -20 21 -23 24 25 -27 -28 30 -31 -33 35 36 37 -38 40 42 -44 -47 49 51 54 58 -59 -60 61 -63 65 67 -69 73 74 -75 -76 -80 -82 83 84 86 -88 -90 -93 -94 -95 -96 -97 -99 100 101 -102 104 -105 107 -108 111 -112 113 114 116 117 -118 119 120 -122 126 -127 -128 -129 -130 132 -135 136 -137 139 -141 -148 0
x 1 2 4 -5 7 9 10 11 -12 -17 -20 -23 24 -25 27 -28 -30 38 -39 41 -45 46 48 -51 -53 54 61 -62 63 -64 -66 67 68 -69 -70 71 -73 74 -81 -82 86 87 90 -91 -92 94 96 -99 -100 -101 102 106 113 -114 116 -117 -118 123 124 125 -129 -131 132 134 136 137 -138 139 141 -144 148 149 0
x 1 2 -4 -5 -6 -7 -9 -12 14 15 18 -20 -22 24 -31 -33 -37 -40 41 -42 -43 -45 48 52 -53 55 -56 58 59 61 -67 -71 73 -75 76 -77 -80 86 -89 -90 -92 93 -94 95 -99 100 102 103 -104 -106 107 -109 116 118 -119 120 121 126 -127 132 133 134 135 136 -137 139 140 -144 -145 -146 -148 0
x 2 -3 -5 6 -7 -9 -10 -12 13 15 -17 19 24 -25 26 28 30 -33 -35 -36 42 -43 49 50 -52 -56 58 59 -62 66 67 68 71 74 75 -76 78 79 80 -81 -85 86 -87 90 -92 -94 -95 -97 98 -99 -100 -103 -104 105 108 109 111 116 -119 -120 -121 -123 -127 128 -129 -130 135 -140 -141 142 144 148 -149 150 0
x 5 6 -8 -9 -12 14 -15 16 -21 -22 26 -27 28 -29 -31 32 -33 35 36 37 -38 -44 46 47 48 -52 -55 -56 -57 60 -62 -63 -66 -67 69 70 -74 76 -77 78 -79 -80 -82 -83 84 85 -87 -88 89 -92 -94 95 96 99 103 105 -109 111 113 114 -116 117 123 -125 -126 129 130 132 -134 -135 139 -143 -144 -145 -146 148 0
x 1 3 4 5 7 -8 -9 -12 16 17 -18 -23 30 31 -34 -36 38 -41 42 -44 -48 50 -52 54 -55 -56 -59 60 -62 -63 64 65 -66 -67 69 -70 71 -74 75 -79 81 -83 85 -86 -87 88 -90 92 93 96 100 101 103 104 -110 111 -113 -114 -116 117 118 -120 124 126 -129 134 -135 136 139 140 141 -144 146 147 -148 149 -150 0
x 4 -5 -6 10 13 -14 15 19 20 21 -22 24 -26 27 -29 -32 -35 -39 -40 -41 42 -43 -47 -48 -49 -51 52 -53 55 56 58 59 66 67 -73 -75 -76 -80 -81 82 83 84 -85 -90 -91 92 93 -94 104 105 -107 108 110 111 112 -113 115 116 -120 121 -123 -125 -126 -127 129 131 133 134 136 139 -142 -145 148 0
x -1 -2 -3 -4 -7 -9 -12 13 -15 -16 17 18 20 -21 29 -31 -32 34 -35 37 -40 45 -48 -51 56 57 -58 60 63 64 65 66 67 -71 -73 -76 -77 80 -81 -82 85 -86 87 91 94 95 -97 98 -99 100 101 102 -103 106 -107 -109 110 -113 -116 117 -118 119 120 124 125 -126 134 141 145 146 -150 0
x -3 -5 6 -9 10 11 14 -18 19 -22 -24 26 27 38 40 41 -42 -43 45 46 47 -51 -53 -55 56 57 -58 60 63 -64 65 67 69 -70 -71 72 73 -74 75 79 80 -81 -83 84 85 -86 -87 88 89 -92 94 95 98 -99 -104 -108 -110 -112 114 115 -117 120 -122 123 -125 126 -127 -128 -131 -134 -136 -137 -140 -142 -144 145 -147 0
x 1 3 4 -5 -6 7 -12 -13 -15 16 -18 -19 26 -27 -29 -31 -32 35 -37 38 -40 41 42 46 48 50 51 -52 -54 56 -59 -63 -65 -66 67 68 69 73 -74 82 83 -85 87 -88 89 -92 -93 94 -96 97 102 -106 107 109 -110 -113 -115 116 118 -119 -124 125 127 -129 132 133 134 135 136 137 -138 141 -143 -144 -147 148 0
x 1 4 -5 8 -12 -16 18 -23 24 25 -26 30 -32 34 -35 37 38 40 -41 42 -43 44 -45 -46 47 -48 54 -55 57 64 66 -71 72 -73 -76 77 82 83 87 88 -89 91 93 97 98 -100 -102 -106 -111 112 -116 118 -123 128 -129 -130 132 -133 -139 141 -142 0
x 1 -2 4 9 -11 -12 16 -17 18 19 20 -21 23 -25 -29 -33 -34 35 37 38 39 41 45 47 -49 -50 51 -52 55 56 60 -61 -63 64 -67 68 72 -73 74 78 82 84 -85 -88 90 97 -101 103 105 -108 109 110 111 112 -115 -122 125 126 -129 132 -134 140 141 -142 146 150 0
x 3 -4 -5 6 9 12 15 -16 -20 23 -25 -26 29 -31 33 34 35 36 -38 39 43 -45 46 -47 48 -52 -55 56 -59 -61 -62 68 -69 70 71 -73 74 -75 77 -80 -82 -83 -86 -87 89 90 -93 94 95 -96 -97 102 111 114 119 -123 125 126 127 128 -130 -131 -132 -134 136 137 141 144 -145 146 -147 149 0
x 1 2 -4 13 -15 16 -18 -20 21 -22 -24 -25 -28 29 33 -34 -35 40 48 52 54 -56 -57 -59 -65 -67 -68 69 72 -76 78 81 85 -86 88 90 91 92 -95 96 -97 99 101 -102 -104 -105 -108 -109 -111 113 -116 118 -119 -122 -125 128 130 -131 -132 -134 135 136 -138 -139 -140 143 -147 0
x 2 -3 -5 6 -8 9 -10 -14 16 17 18 -21 -25 -26 27 29 31 32 -34 -36 -38 39 42 47 -50 -51 -52 -53 -56 -57 -59 -60 61 66 -67 73 76 78 86 89 -90 -91 -92 -93 94 98 102 103 106 -108 109 -110 -111 -112 114 115 -116 -117 -121 -122 -126 130 133 134 -136 141 -143 144 145 146 147 -148 -149 150 0
x 3 7 10 11 -12 -13 -14 -20 -22 28 -29 30 31 -32 -35 -37 -39 40 -41 42 44 46 50 51 -52 -53 -54 -55 58 64 -69 73 -78 81 -82 83 84 -85 -86 -87 88 92 -93 94 95 99 101 -102 -105 -107 -109 111 113 115 -116 -126 128 132 -134 135 -138 140 -141 -145 146 148 150 0
x 1 -2 4 -6 11 -15 -17 19 -25 26 29 30 -32 -34 -38 -41 42 43 -44 -45 -46 -50 53 -57 59 61 -62 -63 -64 65 -67 -68 69 -70 71 74 -75 -78 79 -83 -87 -89 -91 -92 94 96 -97 -99 -102 108 -109 -111 114 116 -118 119 -120 121 -122 -124 125 -130 135 -137 -139 -140 -141 143 -144 145 146 -148 -149 0
x -5 6 -7 8 -9 11 14 21 22 -24 26 -29 30 -31 -32 -36 37 -40 41 42 45 -46 -47 48 -49 51 -53 61 -62 -66 -68 69 -71 -72 -73 -77 -78 79 -80 -81 -83 -84 -86 87 90 91 -92 93 94 95 97 98 -99 -100 101 -102 104 -105 107 -111 -115 -116 117 119 121 -124 -125 -128 -130 -131 132 133 134 -136 -139 -140 141 -143 -144 -147 148 -150 0
x 2 -3 9 -10 -11 -13 -14 -15 -16 -19 -21 -24 -27 28 -30 31 -32 34 -35 -38 -39 -41 -42 -46 48 -49 50 52 -53 -57 58 -60 63 -66 67 69 70 71 72 73 -74 -75 77 -81 82 -84 -86 88 90 91 -92 -93 96 97 -98 -99 -101 -104 105 108 -109 -110 -112 114 115 116 119 122 123 -125 126 -127 128 129 -132 -136 -137 140 -141 -146 147 -149 0
x -4 -5 -9 -12 -18 19 -21 26 -27 -28 -30 31 32 -33 -35 -36 38 -39 41 -42 50 -51 52 -53 60 -61 63 -64 70 71 -72 74 -75 -82 84 87 88 -89 90 -91 92 -94 96 98 99 100 -101 -105 108 109 111 117 118 -119 122 -123 -124 125 126 -131 -134 -135 -138 -141 -142 -144 -146 148 150 0
x -1 2 5 -6 7 -11 15 16 -17 18 19 -22 -24 -25 27 28 32 34 39 40 -41 -42 -44 45 47 48 -50 51 55 -56 -59 -60 -62 -65 -68 -69 -71 -76 -77 -78 -83 84 85 86 88 -89 -90 92 -93 94 -95 96 97 99 102 -104 -106 110 -111 -112 115 116 117 119 -121 123 124 125 126 128 129 130 132 -133 -135 136 138 -140 144 -147 148 0
x -1 -2 -3 -4 6 -8 10 11 -12 14 -15 16 -17 -18 -19 -20 23 -25 -28 -32 35 36 40 41 -47 48 -49 -50 -51 -52 53 -54 -55 -59 61 -65 -66 68 -70 -73 -74 80 -81 -84 86 -88 -93 -94 95 -98 -102 -104 -110 -111 113 115 117 -121 -123 124 125 -128 -129 130 -131 -132 -133 -134 136 137 -139 -142 -145 -148 -150 0
x -1 -7 -8 9 -10 -11 -12 14 16 17 -21 27 -28 -29 -30 32 35 38 -42 43 46 47 -48 50 51 -53 -58 -59 62 -67 69 -70 71 76 77 -79 -80 -82 -83 -86 88 90 -91 95 -97 -99 104 110 111 112 -115 116 -119 -120 125 126 127 129 132 133 -137 139 140 141 145 147 -148 0
x -3 -4 -5 -10 -11 13 -15 16 -17 -19 -20 21 -26 28 29 -30 -33 36 -37 40 41 43 44 -46 -47 50 -51 -53 55 56 -57 59 -62 -65 -66 -67 -68 69 -71 -73 75 -76 -78 79 -80 -83 -84 87 88 -91 93 -94 -95 96 97 -98 -100 101 -102 -103 -105 -108 -109 112 113 -114 116 119 121 -123 128 -129 -130 -131 -137 -141 143 147 148 150 0
x -2 3 -7 9 -10 -16 -18 19 -21 -22 -24 25 26 -27 -29 -30 34 -35 36 -38 40 41 -42 43 45 47 -48 49 52 54 57 -58 61 67 72 -74 75 -77 -80 81 -84 85 -87 -88 89 90 -91 -94 95 -96 97 98 -101 102 104 108 119 123 -124 -127 128 -129 -130 131 133 -135 136 -139 141 142 -143 -145 146 147 148 0
x -2 -3 -6 -10 -11 -14 -17 19 20 21 22 25 26 -28 30 -33 34 -35 36 -37 -40 -42 43 46 47 50 53 -54 56 59 60 66 69 71 73 -76 -80 -81 -82 84 -85 -90 -92 -95 -97 -102 -103 105 -107 -108 109 -112 113 -114 115 -116 117 -118 119 122 -123 -125 -131 -132 133 136 138 139 140 -142 145 147 148 -150 0
x 1 2 -3 4 5 -9 11 -12 -13 -18 -19 -28 -29 31 -32 35 -36 38 39 43 -44 -45 -47 -49 50 -52 -53 54 56 -58 -59 -61 -63 65 -66 -67 -70 -71 72 73 75 -78 82 87 -88 90 92 -95 -96 -97 98 -100 103 110 -113 -114 -116 -117 118 -121 -122 123 -127 134 -135 136 -138 139 141 144 -145 -146 149 150 0
x 1 2 -3 4 -5 -6 8 -9 10 11 14 -15 -17 20 21 -25 -26 -27 28 -29 -31 36 37 -38 -40 42 43 44 46 -47 -52 54 -55 -56 -57 -58 -60 -64 65 67 68 70 74 -75 77 83 -84 -85 -86 -87 -90 -91 -93 -94 -95 97 -98 -99 -100 101 -106 -107 109 -110 -112 113 -114 116 -118 119 120 122 123 126 128 129 -135 -136 137 138 140 141 142 143 -148 -150 0
x 1 -7 8 10 -11 -13 15 17 -20 21 22 26 -27 28 -31 32 -33 -34 36 -37 -38 39 -41 46 -47 48 50 -52 53 -56 -57 -58 -62 67 -73 76 -77 78 -79 -80 -81 -82 -83 84 85 -86 -87 -89 90 -91 93 -98 -99 -101 103 104 107 -108 -113 115 120 -122 -124 -125 -130 131 -133 -134 135 -136 139 140 145 147 149 0
x 1 -2 4 5 -8 -10 -11 13 14 16 -17 18 -19 20 21 23 -24 -25 26 -29 -30 -31 -32 -36 -38 43 46 -50 -53 54 -55 -59 -61 -62 64 -65 66 67 -68 69 70 71 72 74 -76 77 80 81 82 -84 88 -89 -90 91 92 93 94 96 -101 104 105 110 111 113 114 -116 -117 -120 122 -124 -126 130 -136 139 -140 -143 -145 147 -148 -150 0
x -2 4 -5 -6 11 14 18 19 20 -23 25 -27 32 -33 34 35 -37 -41 -48 -49 -51 52 53 -54 -57 -58 60 -63 -64 -65 -66 -68 -71 -73 74 -79 -80 85 87 89 90 91 -92 -98 -100 101 -102 -103 104 -105 106 107 110 111 114 115 -118 -119 120 121 -122 -123 126 -132 133 -134 135 -137 138 -139 -140 143 -146 0
x -7 -8 -10 -11 -13 -15 -16 18 -19 20 -21 22 24 25 -29 -31 -32 -33 34 -39 41 43 45 -46 -47 48 50 51 -53 -55 56 -57 -58 -60 63 -66 67 -71 -73 -74 75 76 77 -79 -80 -81 -82 83 85 -87 89 -91 -92 93 -98 -100 -101 103 -104 106 -112 -116 119 125 -126 -127 128 132 133 137 138 -140 145 -149 150 0
x -1 -2 4 5 6 -7 -8 9 -14 -16 -19 20 -24 25 26 28 -29 30 33 35 40 -42 44 -45 -47 50 52 -55 -57 -58 -60 -63 68 72 75 76 -77 -80 -81 85 88 -89 92 93 -95 -96 99 100 104 107 -108 -110 111 112 -113 115 119 120 121 -122 126 -129 130 134 -135 136 -137 -138 142 -143 145 -148 0
x 1 -6 10 -11 -13 -17 18 20 25 -27 28 -30 -32 -36 -37 38 -41 -42 43 45 49 51 -53 54 55 -56 57 -58 -59 60 -62 -64 -65 -68 -71 73 76 77 -83 -88 91 -94 -95 96 -97 98 -99 100 102 -104 106 107 111 115 117 -118 121 -124 125 -126 -129 -131 -132 -133 -134 135 -136 -137 -138 139 140 143 -146 147 -148 -149 0
x -2 3 8 -13 -18 19 20 22 24 -25 26 27 30 -31 33 -34 -36 -39 45 46 -49 -52 55 57 -61 63 66 67 -68 -69 70 72 75 77 -78 79 -81 -88 -89 -90 92 -93 94 97 -100 102 -105 -106 107 108 -111 -112 -113 -117 -118 119 -121 123 -124 -125 131 -132 133 134 -137 138 139 140 143 145 146 147 148 149 0
g -45